
  22   10
  10   10   10   10   10   10   10   10   10   10

   0   0   0   0   0   0   0   0   0   0   0   8 2 4 5 7 10 19 20 21 
   2  10   0   0   0   0   0   0   0   0   0   3 18 9 3 
   2   0   0   0   0  10   0   0   0   0   0   3 16 13 6 
   8   0   0   0   0   0  10   0   0   0   0   5 18 17 16 12 8 
   5   0   0   0   0   0   0   0  10   0   0   5 17 16 13 12 8 
   6   0   0   0   0  10   0   0   0   0   0   3 17 12 8 
   5   0   0   0   0   0   0   0   0   0  10   2 16 14 
   1   0   0   0   0  10   0   0   0   0   0   1 11 
   3   0   0   0   0   0   0  10   0   0   0   1 11 
   1   0   0   0   0   0   0   0  10   0   0   1 11 
   4   0   0   0   0  10   0   0   0   0   0   1 14 
   9   0   0   0   0   0   0   0   0   0  10   1 15 
   7   0  10   0   0   0   0   0   0   0   0   1 14 
   2  10   0   0   0   0   0   0   0   0   0   1 22
   5   0  10   0   0   0   0   0   0   0   0   1 22
   6   0   0   0   0   0   0   0  10   0   0   1 22
  10   0   0   0   0  10   0   0   0   0   0   1 22
   7   0   0   0   0  10   0   0   0   0   0   1 22
   3   0   0   0   0   0   0   0   0   0  10   1 22
   5   0   0   0   0   0   0   0  10   0   0   1 22
   9   0   0   0   0   0  10   0   0   0   0   1 22
   0   0   0   0   0   0   0   0   0   0   0   0 
